p cnf 3437
-19 -290
-20 -103
-21 -106
-22 -109
-23 -112
-24 -115
-25 -118
-26 -121
-27 -124
-28 -127
-29 -337
-30 -343
-31 -349
-32 -355
-33 -361
-34 -367
-35 -373
-36 -379
-37 -385
-38 -414
-39 -433
-40 -451
-41 -461
-42 -480
-43 -499
-44 -517
-45 -527
-46 -546
-47 -565
-48 -583
-49 -593
-50 -612
-51 -631
-52 -649
-53 -659
-54 -678
-55 -697
-56 -715
-57 -725
-58 -744
-59 -763
-60 -781
-61 -791
-62 -810
-63 -829
-64 -847
-65 -857
-66 -876
-67 -895
-68 -913
-69 -923
-70 -942
-71 -961
-72 -979
-73 -989
-74 -1059
-75 -1065
-76 -1071
-77 1
-77 -29
-1 29 77
-78 2
-78 -30
-2 30 78
-79 3
-79 -31
-3 31 79
-80 4
-80 -32
-4 32 80
-81 5
-81 -33
-5 33 81
-82 6
-82 -34
-6 34 82
-83 7
-83 -35
-7 35 83
-84 8
-84 -36
-8 36 84
-85 9
-85 -37
-9 37 85
-86 -77
-86 78
77 -78 86
-87 -77
-87 -86
77 86 87
-88 79
-88 87
-79 -87 88
-89 87
-89 -88
-87 88 89
-90 80
-90 89
-80 -89 90
-91 89
-91 -90
-89 90 91
-92 81
-92 91
-81 -91 92
-93 91
-93 -92
-91 92 93
-94 82
-94 93
-82 -93 94
-95 93
-95 -94
-93 94 95
-96 83
-96 95
-83 -95 96
-97 95
-97 -96
-95 96 97
-98 84
-98 97
-84 -97 98
-99 97
-99 -98
-97 98 99
-100 85
-100 99
-85 -99 100
-101 -19
-101 77
19 -77 101
-102 19
-102 20
-19 -20 102
-103 -101
-103 -102
101 102 103
-104 -19
-104 86
19 -86 104
-105 19
-105 21
-19 -21 105
-106 -104
-106 -105
104 105 106
-107 -19
-107 88
19 -88 107
-108 19
-108 22
-19 -22 108
-109 -107
-109 -108
107 108 109
-110 -19
-110 90
19 -90 110
-111 19
-111 23
-19 -23 111
-112 -110
-112 -111
110 111 112
-113 -19
-113 92
19 -92 113
-114 19
-114 24
-19 -24 114
-115 -113
-115 -114
113 114 115
-116 -19
-116 94
19 -94 116
-117 19
-117 25
-19 -25 117
-118 -116
-118 -117
116 117 118
-119 -19
-119 96
19 -96 119
-120 19
-120 26
-19 -26 120
-121 -119
-121 -120
119 120 121
-122 -19
-122 98
19 -98 122
-123 19
-123 27
-19 -27 123
-124 -122
-124 -123
122 123 124
-125 -19
-125 100
19 -100 125
-126 19
-126 28
-19 -28 126
-127 -125
-127 -126
125 126 127
-128 1
-128 -103
-1 103 128
-129 2
-129 -106
-2 106 129
-130 3
-130 -109
-3 109 130
-131 4
-131 -112
-4 112 131
-132 5
-132 -115
-5 115 132
-133 6
-133 -118
-6 118 133
-134 7
-134 -121
-7 121 134
-135 8
-135 -124
-8 124 135
-136 9
-136 -127
-9 127 136
-137 38
-137 -39
-38 39 137
-138 -40
-138 -41
40 41 138
-139 137
-139 138
-137 -138 139
-140 -38
-140 -39
38 39 140
-141 -40
-141 41
40 -41 141
-142 140
-142 141
-140 -141 142
-143 -139
-143 -142
139 142 143
-144 128
-144 -143
-128 143 144
-145 42
-145 -43
-42 43 145
-146 -44
-146 -45
44 45 146
-147 145
-147 146
-145 -146 147
-148 -42
-148 -43
42 43 148
-149 -44
-149 45
44 -45 149
-150 148
-150 149
-148 -149 150
-151 -147
-151 -150
147 150 151
-152 129
-152 -151
-129 151 152
-153 46
-153 -47
-46 47 153
-154 -48
-154 -49
48 49 154
-155 153
-155 154
-153 -154 155
-156 -46
-156 -47
46 47 156
-157 -48
-157 49
48 -49 157
-158 156
-158 157
-156 -157 158
-159 -155
-159 -158
155 158 159
-160 130
-160 -159
-130 159 160
-161 50
-161 -51
-50 51 161
-162 -52
-162 -53
52 53 162
-163 161
-163 162
-161 -162 163
-164 -50
-164 -51
50 51 164
-165 -52
-165 53
52 -53 165
-166 164
-166 165
-164 -165 166
-167 -163
-167 -166
163 166 167
-168 131
-168 -167
-131 167 168
-169 54
-169 -55
-54 55 169
-170 -56
-170 -57
56 57 170
-171 169
-171 170
-169 -170 171
-172 -54
-172 -55
54 55 172
-173 -56
-173 57
56 -57 173
-174 172
-174 173
-172 -173 174
-175 -171
-175 -174
171 174 175
-176 132
-176 -175
-132 175 176
-177 58
-177 -59
-58 59 177
-178 -60
-178 -61
60 61 178
-179 177
-179 178
-177 -178 179
-180 -58
-180 -59
58 59 180
-181 -60
-181 61
60 -61 181
-182 180
-182 181
-180 -181 182
-183 -179
-183 -182
179 182 183
-184 133
-184 -183
-133 183 184
-185 62
-185 -63
-62 63 185
-186 -64
-186 -65
64 65 186
-187 185
-187 186
-185 -186 187
-188 -62
-188 -63
62 63 188
-189 -64
-189 65
64 -65 189
-190 188
-190 189
-188 -189 190
-191 -187
-191 -190
187 190 191
-192 134
-192 -191
-134 191 192
-193 66
-193 -67
-66 67 193
-194 -68
-194 -69
68 69 194
-195 193
-195 194
-193 -194 195
-196 -66
-196 -67
66 67 196
-197 -68
-197 69
68 -69 197
-198 196
-198 197
-196 -197 198
-199 -195
-199 -198
195 198 199
-200 135
-200 -199
-135 199 200
-201 70
-201 -71
-70 71 201
-202 -72
-202 -73
72 73 202
-203 201
-203 202
-201 -202 203
-204 -70
-204 -71
70 71 204
-205 -72
-205 73
72 -73 205
-206 204
-206 205
-204 -205 206
-207 -203
-207 -206
203 206 207
-208 136
-208 -207
-136 207 208
-209 -144
-209 -152
144 152 209
-210 -160
-210 -168
160 168 210
-211 -176
-211 -184
176 184 211
-212 -192
-212 -200
192 200 212
-213 209
-213 210
-209 -210 213
-214 211
-214 212
-211 -212 214
-215 213
-215 214
-213 -214 215
-216 -208
-216 215
208 -215 216
-217 -38
-217 39
38 -39 217
-218 40
-218 -41
-40 41 218
-219 217
-219 218
-217 -218 219
-220 40
-220 41
-40 -41 220
-221 137
-221 220
-137 -220 221
-222 -219
-222 -221
219 221 222
-223 128
-223 -222
-128 222 223
-224 -42
-224 43
42 -43 224
-225 44
-225 -45
-44 45 225
-226 224
-226 225
-224 -225 226
-227 44
-227 45
-44 -45 227
-228 145
-228 227
-145 -227 228
-229 -226
-229 -228
226 228 229
-230 129
-230 -229
-129 229 230
-231 -46
-231 47
46 -47 231
-232 48
-232 -49
-48 49 232
-233 231
-233 232
-231 -232 233
-234 48
-234 49
-48 -49 234
-235 153
-235 234
-153 -234 235
-236 -233
-236 -235
233 235 236
-237 130
-237 -236
-130 236 237
-238 -50
-238 51
50 -51 238
-239 52
-239 -53
-52 53 239
-240 238
-240 239
-238 -239 240
-241 52
-241 53
-52 -53 241
-242 161
-242 241
-161 -241 242
-243 -240
-243 -242
240 242 243
-244 131
-244 -243
-131 243 244
-245 -54
-245 55
54 -55 245
-246 56
-246 -57
-56 57 246
-247 245
-247 246
-245 -246 247
-248 56
-248 57
-56 -57 248
-249 169
-249 248
-169 -248 249
-250 -247
-250 -249
247 249 250
-251 132
-251 -250
-132 250 251
-252 -58
-252 59
58 -59 252
-253 60
-253 -61
-60 61 253
-254 252
-254 253
-252 -253 254
-255 60
-255 61
-60 -61 255
-256 177
-256 255
-177 -255 256
-257 -254
-257 -256
254 256 257
-258 133
-258 -257
-133 257 258
-259 -62
-259 63
62 -63 259
-260 64
-260 -65
-64 65 260
-261 259
-261 260
-259 -260 261
-262 64
-262 65
-64 -65 262
-263 185
-263 262
-185 -262 263
-264 -261
-264 -263
261 263 264
-265 134
-265 -264
-134 264 265
-266 -66
-266 67
66 -67 266
-267 68
-267 -69
-68 69 267
-268 266
-268 267
-266 -267 268
-269 68
-269 69
-68 -69 269
-270 193
-270 269
-193 -269 270
-271 -268
-271 -270
268 270 271
-272 135
-272 -271
-135 271 272
-273 -70
-273 71
70 -71 273
-274 72
-274 -73
-72 73 274
-275 273
-275 274
-273 -274 275
-276 72
-276 73
-72 -73 276
-277 201
-277 276
-201 -276 277
-278 -275
-278 -277
275 277 278
-279 136
-279 -278
-136 278 279
-280 -223
-280 -230
223 230 280
-281 -237
-281 -244
237 244 281
-282 -251
-282 -258
251 258 282
-283 -265
-283 -272
265 272 283
-284 280
-284 281
-280 -281 284
-285 282
-285 283
-282 -283 285
-286 284
-286 285
-284 -285 286
-287 -279
-287 286
279 -286 287
-288 19
-288 287
-19 -287 288
-289 216
-289 288
-216 -288 289
-290 216
-290 -289
-216 289 290
-291 -29
-291 30
29 -30 291
-292 -29
-292 -291
29 291 292
-293 31
-293 292
-31 -292 293
-294 292
-294 -293
-292 293 294
-295 32
-295 294
-32 -294 295
-296 294
-296 -295
-294 295 296
-297 33
-297 296
-33 -296 297
-298 296
-298 -297
-296 297 298
-299 34
-299 298
-34 -298 299
-300 298
-300 -299
-298 299 300
-301 35
-301 300
-35 -300 301
-302 300
-302 -301
-300 301 302
-303 36
-303 302
-36 -302 303
-304 302
-304 -303
-302 303 304
-305 37
-305 304
-37 -304 305
-306 140
-306 220
-140 -220 306
-307 128
-307 306
-128 -306 307
-308 148
-308 227
-148 -227 308
-309 129
-309 308
-129 -308 309
-310 156
-310 234
-156 -234 310
-311 130
-311 310
-130 -310 311
-312 164
-312 241
-164 -241 312
-313 131
-313 312
-131 -312 313
-314 172
-314 248
-172 -248 314
-315 132
-315 314
-132 -314 315
-316 180
-316 255
-180 -255 316
-317 133
-317 316
-133 -316 317
-318 188
-318 262
-188 -262 318
-319 134
-319 318
-134 -318 319
-320 196
-320 269
-196 -269 320
-321 135
-321 320
-135 -320 321
-322 204
-322 276
-204 -276 322
-323 136
-323 322
-136 -322 323
-324 -307
-324 -309
307 309 324
-325 -311
-325 -313
311 313 325
-326 -315
-326 -317
315 317 326
-327 -319
-327 -321
319 321 327
-328 324
-328 325
-324 -325 328
-329 326
-329 327
-326 -327 329
-330 328
-330 329
-328 -329 330
-331 -323
-331 330
323 -330 331
-332 137
-332 218
-137 -218 332
-333 128
-333 332
-128 -332 333
-334 29
-334 -331
-29 331 334
-335 29
-335 -334
-29 334 335
-336 -333
-336 335
333 -335 336
-337 -333
-337 -336
333 336 337
-338 145
-338 225
-145 -225 338
-339 129
-339 338
-129 -338 339
-340 291
-340 -331
-291 331 340
-341 30
-341 -340
-30 340 341
-342 -339
-342 341
339 -341 342
-343 -339
-343 -342
339 342 343
-344 153
-344 232
-153 -232 344
-345 130
-345 344
-130 -344 345
-346 293
-346 -331
-293 331 346
-347 31
-347 -346
-31 346 347
-348 -345
-348 347
345 -347 348
-349 -345
-349 -348
345 348 349
-350 161
-350 239
-161 -239 350
-351 131
-351 350
-131 -350 351
-352 295
-352 -331
-295 331 352
-353 32
-353 -352
-32 352 353
-354 -351
-354 353
351 -353 354
-355 -351
-355 -354
351 354 355
-356 169
-356 246
-169 -246 356
-357 132
-357 356
-132 -356 357
-358 297
-358 -331
-297 331 358
-359 33
-359 -358
-33 358 359
-360 -357
-360 359
357 -359 360
-361 -357
-361 -360
357 360 361
-362 177
-362 253
-177 -253 362
-363 133
-363 362
-133 -362 363
-364 299
-364 -331
-299 331 364
-365 34
-365 -364
-34 364 365
-366 -363
-366 365
363 -365 366
-367 -363
-367 -366
363 366 367
-368 185
-368 260
-185 -260 368
-369 134
-369 368
-134 -368 369
-370 301
-370 -331
-301 331 370
-371 35
-371 -370
-35 370 371
-372 -369
-372 371
369 -371 372
-373 -369
-373 -372
369 372 373
-374 193
-374 267
-193 -267 374
-375 135
-375 374
-135 -374 375
-376 303
-376 -331
-303 331 376
-377 36
-377 -376
-36 376 377
-378 -375
-378 377
375 -377 378
-379 -375
-379 -378
375 378 379
-380 201
-380 274
-201 -274 380
-381 136
-381 380
-136 -380 381
-382 305
-382 -331
-305 331 382
-383 37
-383 -382
-37 382 383
-384 -381
-384 383
381 -383 384
-385 -381
-385 -384
381 384 385
-386 -29
-386 -30
29 30 386
-387 -31
-387 -32
31 32 387
-388 -33
-388 -34
33 34 388
-389 -35
-389 -36
35 36 389
-390 386
-390 387
-386 -387 390
-391 388
-391 389
-388 -389 391
-392 390
-392 391
-390 -391 392
-393 -37
-393 392
37 -392 393
-394 74
-394 -75
-74 75 394
-395 76
-395 394
-76 -394 395
-396 -39
-396 -140
39 140 396
-397 40
-397 140
-40 -140 397
-398 -40
-398 -396
40 396 398
-399 -397
-399 -398
397 398 399
-400 -10
-400 38
10 -38 400
-401 38
-401 -400
-38 400 401
-402 39
-402 -401
-39 401 402
-403 10
-403 -38
-10 38 403
-404 -39
-404 403
39 -403 404
-405 -217
-405 -404
217 404 405
-406 40
-406 402
-40 -402 406
-407 -40
-407 -405
40 405 407
-408 -406
-408 -407
406 407 408
-409 41
-409 -399
-41 399 409
-410 -41
-410 -408
41 408 410
-411 -409
-411 -410
409 410 411
-412 128
-412 -411
-128 411 412
-413 38
-413 -128
-38 128 413
-414 -412
-414 -413
412 413 414
-415 38
-415 393
-38 -393 415
-416 -39
-416 415
39 -415 416
-417 -217
-417 -416
217 416 417
-418 40
-418 137
-40 -137 418
-419 -40
-419 -417
40 417 419
-420 -418
-420 -419
418 419 420
-421 39
-421 -402
-39 402 421
-422 -38
-422 -395
38 395 422
-423 39
-423 422
-39 -422 423
-424 -137
-424 -423
137 423 424
-425 40
-425 -421
-40 421 425
-426 -40
-426 -424
40 424 426
-427 -425
-427 -426
425 426 427
-428 41
-428 -420
-41 420 428
-429 -41
-429 -427
41 427 429
-430 -428
-430 -429
428 429 430
-431 128
-431 -430
-128 430 431
-432 39
-432 -128
-39 128 432
-433 -431
-433 -432
431 432 433
-434 38
-434 -393
-38 393 434
-435 38
-435 39
-38 -39 435
-436 -39
-436 434
39 -434 436
-437 -435
-437 -436
435 436 437
-438 -39
-438 40
39 -40 438
-439 -40
-439 -437
40 437 439
-440 -438
-440 -439
438 439 440
-441 -38
-441 395
38 -395 441
-442 -38
-442 -441
38 441 442
-443 39
-443 -442
-39 442 443
-444 -40
-444 443
40 -443 444
-445 -425
-445 -444
425 444 445
-446 41
-446 -440
-41 440 446
-447 -41
-447 -445
41 445 447
-448 -446
-448 -447
446 447 448
-449 128
-449 -448
-128 448 449
-450 40
-450 -128
-40 128 450
-451 -449
-451 -450
449 450 451
-452 40
-452 -438
-40 438 452
-453 10
-453 38
-10 -38 453
-454 39
-454 453
-39 -453 454
-455 40
-455 454
-40 -454 455
-456 41
-456 -452
-41 452 456
-457 -41
-457 455
41 -455 457
-458 -456
-458 -457
456 457 458
-459 128
-459 -458
-128 458 459
-460 41
-460 -128
-41 128 460
-461 -459
-461 -460
459 460 461
-462 -43
-462 -148
43 148 462
-463 44
-463 148
-44 -148 463
-464 -44
-464 -462
44 462 464
-465 -463
-465 -464
463 464 465
-466 -11
-466 42
11 -42 466
-467 42
-467 -466
-42 466 467
-468 43
-468 -467
-43 467 468
-469 11
-469 -42
-11 42 469
-470 -43
-470 469
43 -469 470
-471 -224
-471 -470
224 470 471
-472 44
-472 468
-44 -468 472
-473 -44
-473 -471
44 471 473
-474 -472
-474 -473
472 473 474
-475 45
-475 -465
-45 465 475
-476 -45
-476 -474
45 474 476
-477 -475
-477 -476
475 476 477
-478 129
-478 -477
-129 477 478
-479 42
-479 -129
-42 129 479
-480 -478
-480 -479
478 479 480
-481 42
-481 393
-42 -393 481
-482 -43
-482 481
43 -481 482
-483 -224
-483 -482
224 482 483
-484 44
-484 145
-44 -145 484
-485 -44
-485 -483
44 483 485
-486 -484
-486 -485
484 485 486
-487 43
-487 -468
-43 468 487
-488 -42
-488 -395
42 395 488
-489 43
-489 488
-43 -488 489
-490 -145
-490 -489
145 489 490
-491 44
-491 -487
-44 487 491
-492 -44
-492 -490
44 490 492
-493 -491
-493 -492
491 492 493
-494 45
-494 -486
-45 486 494
-495 -45
-495 -493
45 493 495
-496 -494
-496 -495
494 495 496
-497 129
-497 -496
-129 496 497
-498 43
-498 -129
-43 129 498
-499 -497
-499 -498
497 498 499
-500 42
-500 -393
-42 393 500
-501 42
-501 43
-42 -43 501
-502 -43
-502 500
43 -500 502
-503 -501
-503 -502
501 502 503
-504 -43
-504 44
43 -44 504
-505 -44
-505 -503
44 503 505
-506 -504
-506 -505
504 505 506
-507 -42
-507 395
42 -395 507
-508 -42
-508 -507
42 507 508
-509 43
-509 -508
-43 508 509
-510 -44
-510 509
44 -509 510
-511 -491
-511 -510
491 510 511
-512 45
-512 -506
-45 506 512
-513 -45
-513 -511
45 511 513
-514 -512
-514 -513
512 513 514
-515 129
-515 -514
-129 514 515
-516 44
-516 -129
-44 129 516
-517 -515
-517 -516
515 516 517
-518 44
-518 -504
-44 504 518
-519 11
-519 42
-11 -42 519
-520 43
-520 519
-43 -519 520
-521 44
-521 520
-44 -520 521
-522 45
-522 -518
-45 518 522
-523 -45
-523 521
45 -521 523
-524 -522
-524 -523
522 523 524
-525 129
-525 -524
-129 524 525
-526 45
-526 -129
-45 129 526
-527 -525
-527 -526
525 526 527
-528 -47
-528 -156
47 156 528
-529 48
-529 156
-48 -156 529
-530 -48
-530 -528
48 528 530
-531 -529
-531 -530
529 530 531
-532 -12
-532 46
12 -46 532
-533 46
-533 -532
-46 532 533
-534 47
-534 -533
-47 533 534
-535 12
-535 -46
-12 46 535
-536 -47
-536 535
47 -535 536
-537 -231
-537 -536
231 536 537
-538 48
-538 534
-48 -534 538
-539 -48
-539 -537
48 537 539
-540 -538
-540 -539
538 539 540
-541 49
-541 -531
-49 531 541
-542 -49
-542 -540
49 540 542
-543 -541
-543 -542
541 542 543
-544 130
-544 -543
-130 543 544
-545 46
-545 -130
-46 130 545
-546 -544
-546 -545
544 545 546
-547 46
-547 393
-46 -393 547
-548 -47
-548 547
47 -547 548
-549 -231
-549 -548
231 548 549
-550 48
-550 153
-48 -153 550
-551 -48
-551 -549
48 549 551
-552 -550
-552 -551
550 551 552
-553 47
-553 -534
-47 534 553
-554 -46
-554 -395
46 395 554
-555 47
-555 554
-47 -554 555
-556 -153
-556 -555
153 555 556
-557 48
-557 -553
-48 553 557
-558 -48
-558 -556
48 556 558
-559 -557
-559 -558
557 558 559
-560 49
-560 -552
-49 552 560
-561 -49
-561 -559
49 559 561
-562 -560
-562 -561
560 561 562
-563 130
-563 -562
-130 562 563
-564 47
-564 -130
-47 130 564
-565 -563
-565 -564
563 564 565
-566 46
-566 -393
-46 393 566
-567 46
-567 47
-46 -47 567
-568 -47
-568 566
47 -566 568
-569 -567
-569 -568
567 568 569
-570 -47
-570 48
47 -48 570
-571 -48
-571 -569
48 569 571
-572 -570
-572 -571
570 571 572
-573 -46
-573 395
46 -395 573
-574 -46
-574 -573
46 573 574
-575 47
-575 -574
-47 574 575
-576 -48
-576 575
48 -575 576
-577 -557
-577 -576
557 576 577
-578 49
-578 -572
-49 572 578
-579 -49
-579 -577
49 577 579
-580 -578
-580 -579
578 579 580
-581 130
-581 -580
-130 580 581
-582 48
-582 -130
-48 130 582
-583 -581
-583 -582
581 582 583
-584 48
-584 -570
-48 570 584
-585 12
-585 46
-12 -46 585
-586 47
-586 585
-47 -585 586
-587 48
-587 586
-48 -586 587
-588 49
-588 -584
-49 584 588
-589 -49
-589 587
49 -587 589
-590 -588
-590 -589
588 589 590
-591 130
-591 -590
-130 590 591
-592 49
-592 -130
-49 130 592
-593 -591
-593 -592
591 592 593
-594 -51
-594 -164
51 164 594
-595 52
-595 164
-52 -164 595
-596 -52
-596 -594
52 594 596
-597 -595
-597 -596
595 596 597
-598 -13
-598 50
13 -50 598
-599 50
-599 -598
-50 598 599
-600 51
-600 -599
-51 599 600
-601 13
-601 -50
-13 50 601
-602 -51
-602 601
51 -601 602
-603 -238
-603 -602
238 602 603
-604 52
-604 600
-52 -600 604
-605 -52
-605 -603
52 603 605
-606 -604
-606 -605
604 605 606
-607 53
-607 -597
-53 597 607
-608 -53
-608 -606
53 606 608
-609 -607
-609 -608
607 608 609
-610 131
-610 -609
-131 609 610
-611 50
-611 -131
-50 131 611
-612 -610
-612 -611
610 611 612
-613 50
-613 393
-50 -393 613
-614 -51
-614 613
51 -613 614
-615 -238
-615 -614
238 614 615
-616 52
-616 161
-52 -161 616
-617 -52
-617 -615
52 615 617
-618 -616
-618 -617
616 617 618
-619 51
-619 -600
-51 600 619
-620 -50
-620 -395
50 395 620
-621 51
-621 620
-51 -620 621
-622 -161
-622 -621
161 621 622
-623 52
-623 -619
-52 619 623
-624 -52
-624 -622
52 622 624
-625 -623
-625 -624
623 624 625
-626 53
-626 -618
-53 618 626
-627 -53
-627 -625
53 625 627
-628 -626
-628 -627
626 627 628
-629 131
-629 -628
-131 628 629
-630 51
-630 -131
-51 131 630
-631 -629
-631 -630
629 630 631
-632 50
-632 -393
-50 393 632
-633 50
-633 51
-50 -51 633
-634 -51
-634 632
51 -632 634
-635 -633
-635 -634
633 634 635
-636 -51
-636 52
51 -52 636
-637 -52
-637 -635
52 635 637
-638 -636
-638 -637
636 637 638
-639 -50
-639 395
50 -395 639
-640 -50
-640 -639
50 639 640
-641 51
-641 -640
-51 640 641
-642 -52
-642 641
52 -641 642
-643 -623
-643 -642
623 642 643
-644 53
-644 -638
-53 638 644
-645 -53
-645 -643
53 643 645
-646 -644
-646 -645
644 645 646
-647 131
-647 -646
-131 646 647
-648 52
-648 -131
-52 131 648
-649 -647
-649 -648
647 648 649
-650 52
-650 -636
-52 636 650
-651 13
-651 50
-13 -50 651
-652 51
-652 651
-51 -651 652
-653 52
-653 652
-52 -652 653
-654 53
-654 -650
-53 650 654
-655 -53
-655 653
53 -653 655
-656 -654
-656 -655
654 655 656
-657 131
-657 -656
-131 656 657
-658 53
-658 -131
-53 131 658
-659 -657
-659 -658
657 658 659
-660 -55
-660 -172
55 172 660
-661 56
-661 172
-56 -172 661
-662 -56
-662 -660
56 660 662
-663 -661
-663 -662
661 662 663
-664 -14
-664 54
14 -54 664
-665 54
-665 -664
-54 664 665
-666 55
-666 -665
-55 665 666
-667 14
-667 -54
-14 54 667
-668 -55
-668 667
55 -667 668
-669 -245
-669 -668
245 668 669
-670 56
-670 666
-56 -666 670
-671 -56
-671 -669
56 669 671
-672 -670
-672 -671
670 671 672
-673 57
-673 -663
-57 663 673
-674 -57
-674 -672
57 672 674
-675 -673
-675 -674
673 674 675
-676 132
-676 -675
-132 675 676
-677 54
-677 -132
-54 132 677
-678 -676
-678 -677
676 677 678
-679 54
-679 393
-54 -393 679
-680 -55
-680 679
55 -679 680
-681 -245
-681 -680
245 680 681
-682 56
-682 169
-56 -169 682
-683 -56
-683 -681
56 681 683
-684 -682
-684 -683
682 683 684
-685 55
-685 -666
-55 666 685
-686 -54
-686 -395
54 395 686
-687 55
-687 686
-55 -686 687
-688 -169
-688 -687
169 687 688
-689 56
-689 -685
-56 685 689
-690 -56
-690 -688
56 688 690
-691 -689
-691 -690
689 690 691
-692 57
-692 -684
-57 684 692
-693 -57
-693 -691
57 691 693
-694 -692
-694 -693
692 693 694
-695 132
-695 -694
-132 694 695
-696 55
-696 -132
-55 132 696
-697 -695
-697 -696
695 696 697
-698 54
-698 -393
-54 393 698
-699 54
-699 55
-54 -55 699
-700 -55
-700 698
55 -698 700
-701 -699
-701 -700
699 700 701
-702 -55
-702 56
55 -56 702
-703 -56
-703 -701
56 701 703
-704 -702
-704 -703
702 703 704
-705 -54
-705 395
54 -395 705
-706 -54
-706 -705
54 705 706
-707 55
-707 -706
-55 706 707
-708 -56
-708 707
56 -707 708
-709 -689
-709 -708
689 708 709
-710 57
-710 -704
-57 704 710
-711 -57
-711 -709
57 709 711
-712 -710
-712 -711
710 711 712
-713 132
-713 -712
-132 712 713
-714 56
-714 -132
-56 132 714
-715 -713
-715 -714
713 714 715
-716 56
-716 -702
-56 702 716
-717 14
-717 54
-14 -54 717
-718 55
-718 717
-55 -717 718
-719 56
-719 718
-56 -718 719
-720 57
-720 -716
-57 716 720
-721 -57
-721 719
57 -719 721
-722 -720
-722 -721
720 721 722
-723 132
-723 -722
-132 722 723
-724 57
-724 -132
-57 132 724
-725 -723
-725 -724
723 724 725
-726 -59
-726 -180
59 180 726
-727 60
-727 180
-60 -180 727
-728 -60
-728 -726
60 726 728
-729 -727
-729 -728
727 728 729
-730 -15
-730 58
15 -58 730
-731 58
-731 -730
-58 730 731
-732 59
-732 -731
-59 731 732
-733 15
-733 -58
-15 58 733
-734 -59
-734 733
59 -733 734
-735 -252
-735 -734
252 734 735
-736 60
-736 732
-60 -732 736
-737 -60
-737 -735
60 735 737
-738 -736
-738 -737
736 737 738
-739 61
-739 -729
-61 729 739
-740 -61
-740 -738
61 738 740
-741 -739
-741 -740
739 740 741
-742 133
-742 -741
-133 741 742
-743 58
-743 -133
-58 133 743
-744 -742
-744 -743
742 743 744
-745 58
-745 393
-58 -393 745
-746 -59
-746 745
59 -745 746
-747 -252
-747 -746
252 746 747
-748 60
-748 177
-60 -177 748
-749 -60
-749 -747
60 747 749
-750 -748
-750 -749
748 749 750
-751 59
-751 -732
-59 732 751
-752 -58
-752 -395
58 395 752
-753 59
-753 752
-59 -752 753
-754 -177
-754 -753
177 753 754
-755 60
-755 -751
-60 751 755
-756 -60
-756 -754
60 754 756
-757 -755
-757 -756
755 756 757
-758 61
-758 -750
-61 750 758
-759 -61
-759 -757
61 757 759
-760 -758
-760 -759
758 759 760
-761 133
-761 -760
-133 760 761
-762 59
-762 -133
-59 133 762
-763 -761
-763 -762
761 762 763
-764 58
-764 -393
-58 393 764
-765 58
-765 59
-58 -59 765
-766 -59
-766 764
59 -764 766
-767 -765
-767 -766
765 766 767
-768 -59
-768 60
59 -60 768
-769 -60
-769 -767
60 767 769
-770 -768
-770 -769
768 769 770
-771 -58
-771 395
58 -395 771
-772 -58
-772 -771
58 771 772
-773 59
-773 -772
-59 772 773
-774 -60
-774 773
60 -773 774
-775 -755
-775 -774
755 774 775
-776 61
-776 -770
-61 770 776
-777 -61
-777 -775
61 775 777
-778 -776
-778 -777
776 777 778
-779 133
-779 -778
-133 778 779
-780 60
-780 -133
-60 133 780
-781 -779
-781 -780
779 780 781
-782 60
-782 -768
-60 768 782
-783 15
-783 58
-15 -58 783
-784 59
-784 783
-59 -783 784
-785 60
-785 784
-60 -784 785
-786 61
-786 -782
-61 782 786
-787 -61
-787 785
61 -785 787
-788 -786
-788 -787
786 787 788
-789 133
-789 -788
-133 788 789
-790 61
-790 -133
-61 133 790
-791 -789
-791 -790
789 790 791
-792 -63
-792 -188
63 188 792
-793 64
-793 188
-64 -188 793
-794 -64
-794 -792
64 792 794
-795 -793
-795 -794
793 794 795
-796 -16
-796 62
16 -62 796
-797 62
-797 -796
-62 796 797
-798 63
-798 -797
-63 797 798
-799 16
-799 -62
-16 62 799
-800 -63
-800 799
63 -799 800
-801 -259
-801 -800
259 800 801
-802 64
-802 798
-64 -798 802
-803 -64
-803 -801
64 801 803
-804 -802
-804 -803
802 803 804
-805 65
-805 -795
-65 795 805
-806 -65
-806 -804
65 804 806
-807 -805
-807 -806
805 806 807
-808 134
-808 -807
-134 807 808
-809 62
-809 -134
-62 134 809
-810 -808
-810 -809
808 809 810
-811 62
-811 393
-62 -393 811
-812 -63
-812 811
63 -811 812
-813 -259
-813 -812
259 812 813
-814 64
-814 185
-64 -185 814
-815 -64
-815 -813
64 813 815
-816 -814
-816 -815
814 815 816
-817 63
-817 -798
-63 798 817
-818 -62
-818 -395
62 395 818
-819 63
-819 818
-63 -818 819
-820 -185
-820 -819
185 819 820
-821 64
-821 -817
-64 817 821
-822 -64
-822 -820
64 820 822
-823 -821
-823 -822
821 822 823
-824 65
-824 -816
-65 816 824
-825 -65
-825 -823
65 823 825
-826 -824
-826 -825
824 825 826
-827 134
-827 -826
-134 826 827
-828 63
-828 -134
-63 134 828
-829 -827
-829 -828
827 828 829
-830 62
-830 -393
-62 393 830
-831 62
-831 63
-62 -63 831
-832 -63
-832 830
63 -830 832
-833 -831
-833 -832
831 832 833
-834 -63
-834 64
63 -64 834
-835 -64
-835 -833
64 833 835
-836 -834
-836 -835
834 835 836
-837 -62
-837 395
62 -395 837
-838 -62
-838 -837
62 837 838
-839 63
-839 -838
-63 838 839
-840 -64
-840 839
64 -839 840
-841 -821
-841 -840
821 840 841
-842 65
-842 -836
-65 836 842
-843 -65
-843 -841
65 841 843
-844 -842
-844 -843
842 843 844
-845 134
-845 -844
-134 844 845
-846 64
-846 -134
-64 134 846
-847 -845
-847 -846
845 846 847
-848 64
-848 -834
-64 834 848
-849 16
-849 62
-16 -62 849
-850 63
-850 849
-63 -849 850
-851 64
-851 850
-64 -850 851
-852 65
-852 -848
-65 848 852
-853 -65
-853 851
65 -851 853
-854 -852
-854 -853
852 853 854
-855 134
-855 -854
-134 854 855
-856 65
-856 -134
-65 134 856
-857 -855
-857 -856
855 856 857
-858 -67
-858 -196
67 196 858
-859 68
-859 196
-68 -196 859
-860 -68
-860 -858
68 858 860
-861 -859
-861 -860
859 860 861
-862 -17
-862 66
17 -66 862
-863 66
-863 -862
-66 862 863
-864 67
-864 -863
-67 863 864
-865 17
-865 -66
-17 66 865
-866 -67
-866 865
67 -865 866
-867 -266
-867 -866
266 866 867
-868 68
-868 864
-68 -864 868
-869 -68
-869 -867
68 867 869
-870 -868
-870 -869
868 869 870
-871 69
-871 -861
-69 861 871
-872 -69
-872 -870
69 870 872
-873 -871
-873 -872
871 872 873
-874 135
-874 -873
-135 873 874
-875 66
-875 -135
-66 135 875
-876 -874
-876 -875
874 875 876
-877 66
-877 393
-66 -393 877
-878 -67
-878 877
67 -877 878
-879 -266
-879 -878
266 878 879
-880 68
-880 193
-68 -193 880
-881 -68
-881 -879
68 879 881
-882 -880
-882 -881
880 881 882
-883 67
-883 -864
-67 864 883
-884 -66
-884 -395
66 395 884
-885 67
-885 884
-67 -884 885
-886 -193
-886 -885
193 885 886
-887 68
-887 -883
-68 883 887
-888 -68
-888 -886
68 886 888
-889 -887
-889 -888
887 888 889
-890 69
-890 -882
-69 882 890
-891 -69
-891 -889
69 889 891
-892 -890
-892 -891
890 891 892
-893 135
-893 -892
-135 892 893
-894 67
-894 -135
-67 135 894
-895 -893
-895 -894
893 894 895
-896 66
-896 -393
-66 393 896
-897 66
-897 67
-66 -67 897
-898 -67
-898 896
67 -896 898
-899 -897
-899 -898
897 898 899
-900 -67
-900 68
67 -68 900
-901 -68
-901 -899
68 899 901
-902 -900
-902 -901
900 901 902
-903 -66
-903 395
66 -395 903
-904 -66
-904 -903
66 903 904
-905 67
-905 -904
-67 904 905
-906 -68
-906 905
68 -905 906
-907 -887
-907 -906
887 906 907
-908 69
-908 -902
-69 902 908
-909 -69
-909 -907
69 907 909
-910 -908
-910 -909
908 909 910
-911 135
-911 -910
-135 910 911
-912 68
-912 -135
-68 135 912
-913 -911
-913 -912
911 912 913
-914 68
-914 -900
-68 900 914
-915 17
-915 66
-17 -66 915
-916 67
-916 915
-67 -915 916
-917 68
-917 916
-68 -916 917
-918 69
-918 -914
-69 914 918
-919 -69
-919 917
69 -917 919
-920 -918
-920 -919
918 919 920
-921 135
-921 -920
-135 920 921
-922 69
-922 -135
-69 135 922
-923 -921
-923 -922
921 922 923
-924 -71
-924 -204
71 204 924
-925 72
-925 204
-72 -204 925
-926 -72
-926 -924
72 924 926
-927 -925
-927 -926
925 926 927
-928 -18
-928 70
18 -70 928
-929 70
-929 -928
-70 928 929
-930 71
-930 -929
-71 929 930
-931 18
-931 -70
-18 70 931
-932 -71
-932 931
71 -931 932
-933 -273
-933 -932
273 932 933
-934 72
-934 930
-72 -930 934
-935 -72
-935 -933
72 933 935
-936 -934
-936 -935
934 935 936
-937 73
-937 -927
-73 927 937
-938 -73
-938 -936
73 936 938
-939 -937
-939 -938
937 938 939
-940 136
-940 -939
-136 939 940
-941 70
-941 -136
-70 136 941
-942 -940
-942 -941
940 941 942
-943 70
-943 393
-70 -393 943
-944 -71
-944 943
71 -943 944
-945 -273
-945 -944
273 944 945
-946 72
-946 201
-72 -201 946
-947 -72
-947 -945
72 945 947
-948 -946
-948 -947
946 947 948
-949 71
-949 -930
-71 930 949
-950 -70
-950 -395
70 395 950
-951 71
-951 950
-71 -950 951
-952 -201
-952 -951
201 951 952
-953 72
-953 -949
-72 949 953
-954 -72
-954 -952
72 952 954
-955 -953
-955 -954
953 954 955
-956 73
-956 -948
-73 948 956
-957 -73
-957 -955
73 955 957
-958 -956
-958 -957
956 957 958
-959 136
-959 -958
-136 958 959
-960 71
-960 -136
-71 136 960
-961 -959
-961 -960
959 960 961
-962 70
-962 -393
-70 393 962
-963 70
-963 71
-70 -71 963
-964 -71
-964 962
71 -962 964
-965 -963
-965 -964
963 964 965
-966 -71
-966 72
71 -72 966
-967 -72
-967 -965
72 965 967
-968 -966
-968 -967
966 967 968
-969 -70
-969 395
70 -395 969
-970 -70
-970 -969
70 969 970
-971 71
-971 -970
-71 970 971
-972 -72
-972 971
72 -971 972
-973 -953
-973 -972
953 972 973
-974 73
-974 -968
-73 968 974
-975 -73
-975 -973
73 973 975
-976 -974
-976 -975
974 975 976
-977 136
-977 -976
-136 976 977
-978 72
-978 -136
-72 136 978
-979 -977
-979 -978
977 978 979
-980 72
-980 -966
-72 966 980
-981 18
-981 70
-18 -70 981
-982 71
-982 981
-71 -981 982
-983 72
-983 982
-72 -982 983
-984 73
-984 -980
-73 980 984
-985 -73
-985 983
73 -983 985
-986 -984
-986 -985
984 985 986
-987 136
-987 -986
-136 986 987
-988 73
-988 -136
-73 136 988
-989 -987
-989 -988
987 988 989
-990 138
-990 435
-138 -435 990
-991 128
-991 990
-128 -990 991
-992 146
-992 501
-146 -501 992
-993 129
-993 992
-129 -992 993
-994 154
-994 567
-154 -567 994
-995 130
-995 994
-130 -994 995
-996 162
-996 633
-162 -633 996
-997 131
-997 996
-131 -996 997
-998 170
-998 699
-170 -699 998
-999 132
-999 998
-132 -998 999
-1000 178
-1000 765
-178 -765 1000
-1001 133
-1001 1000
-133 -1000 1001
-1002 186
-1002 831
-186 -831 1002
-1003 134
-1003 1002
-134 -1002 1003
-1004 194
-1004 897
-194 -897 1004
-1005 135
-1005 1004
-135 -1004 1005
-1006 202
-1006 963
-202 -963 1006
-1007 136
-1007 1006
-136 -1006 1007
-1008 -991
-1008 -993
991 993 1008
-1009 -995
-1009 -997
995 997 1009
-1010 -999
-1010 -1001
999 1001 1010
-1011 -1003
-1011 -1005
1003 1005 1011
-1012 1008
-1012 1009
-1008 -1009 1012
-1013 1010
-1013 1011
-1010 -1011 1013
-1014 1012
-1014 1013
-1012 -1013 1014
-1015 -1007
-1015 1014
1007 -1014 1015
-1016 141
-1016 217
-141 -217 1016
-1017 128
-1017 1016
-128 -1016 1017
-1018 149
-1018 224
-149 -224 1018
-1019 129
-1019 1018
-129 -1018 1019
-1020 157
-1020 231
-157 -231 1020
-1021 130
-1021 1020
-130 -1020 1021
-1022 165
-1022 238
-165 -238 1022
-1023 131
-1023 1022
-131 -1022 1023
-1024 173
-1024 245
-173 -245 1024
-1025 132
-1025 1024
-132 -1024 1025
-1026 181
-1026 252
-181 -252 1026
-1027 133
-1027 1026
-133 -1026 1027
-1028 189
-1028 259
-189 -259 1028
-1029 134
-1029 1028
-134 -1028 1029
-1030 197
-1030 266
-197 -266 1030
-1031 135
-1031 1030
-135 -1030 1031
-1032 205
-1032 273
-205 -273 1032
-1033 136
-1033 1032
-136 -1032 1033
-1034 -1017
-1034 -1019
1017 1019 1034
-1035 -1021
-1035 -1023
1021 1023 1035
-1036 -1025
-1036 -1027
1025 1027 1036
-1037 -1029
-1037 -1031
1029 1031 1037
-1038 1034
-1038 1035
-1034 -1035 1038
-1039 1036
-1039 1037
-1036 -1037 1039
-1040 1038
-1040 1039
-1038 -1039 1040
-1041 -1033
-1041 1040
1033 -1040 1041
-1042 -74
-1042 75
74 -75 1042
-1043 -394
-1043 -1042
394 1042 1043
-1044 74
-1044 75
-74 -75 1044
-1045 76
-1045 -1044
-76 1044 1045
-1046 -76
-1046 1044
76 -1044 1046
-1047 -1045
-1047 -1046
1045 1046 1047
-1048 76
-1048 1044
-76 -1044 1048
-1049 -74
-1049 -75
74 75 1049
-1050 -1044
-1050 -1049
1044 1049 1050
-1051 76
-1051 -1049
-76 1049 1051
-1052 -76
-1052 1049
76 -1049 1052
-1053 -1051
-1053 -1052
1051 1052 1053
-1054 -74
-1054 -1041
74 1041 1054
-1055 74
-1055 1041
-74 -1041 1055
-1056 -1054
-1056 -1055
1054 1055 1056
-1057 -74
-1057 -1015
74 1015 1057
-1058 1015
-1058 -1056
-1015 1056 1058
-1059 -1057
-1059 -1058
1057 1058 1059
-1060 -1041
-1060 -1050
1041 1050 1060
-1061 75
-1061 1041
-75 -1041 1061
-1062 -1060
-1062 -1061
1060 1061 1062
-1063 -1015
-1063 -1043
1015 1043 1063
-1064 1015
-1064 -1062
-1015 1062 1064
-1065 -1063
-1065 -1064
1063 1064 1065
-1066 -1041
-1066 -1053
1041 1053 1066
-1067 76
-1067 1041
-76 -1041 1067
-1068 -1066
-1068 -1067
1066 1067 1068
-1069 -1015
-1069 -1047
1015 1047 1069
-1070 1015
-1070 -1068
-1015 1068 1070
-1071 -1069
-1071 -1070
1069 1070 1071
-1072 218
-1072 435
-218 -435 1072
-1073 -29
-1073 1072
29 -1072 1073
-1074 225
-1074 501
-225 -501 1074
-1075 -30
-1075 1074
30 -1074 1075
-1076 232
-1076 567
-232 -567 1076
-1077 -31
-1077 1076
31 -1076 1077
-1078 239
-1078 633
-239 -633 1078
-1079 -32
-1079 1078
32 -1078 1079
-1080 246
-1080 699
-246 -699 1080
-1081 -33
-1081 1080
33 -1080 1081
-1082 253
-1082 765
-253 -765 1082
-1083 -34
-1083 1082
34 -1082 1083
-1084 260
-1084 831
-260 -831 1084
-1085 -35
-1085 1084
35 -1084 1085
-1086 267
-1086 897
-267 -897 1086
-1087 -36
-1087 1086
36 -1086 1087
-1088 274
-1088 963
-274 -963 1088
-1089 -37
-1089 1088
37 -1088 1089
-1090 1073
-1090 -1075
-1073 1075 1090
-1091 -1073
-1091 1075
1073 -1075 1091
-1092 -1090
-1092 -1091
1090 1091 1092
-1093 1073
-1093 1075
-1073 -1075 1093
-1094 -1077
-1094 -1092
1077 1092 1094
-1095 1077
-1095 1092
-1077 -1092 1095
-1096 -1094
-1096 -1095
1094 1095 1096
-1097 1077
-1097 -1092
-1077 1092 1097
-1098 1093
-1098 -1097
-1093 1097 1098
-1099 -1093
-1099 1097
1093 -1097 1099
-1100 -1098
-1100 -1099
1098 1099 1100
-1101 1093
-1101 1097
-1093 -1097 1101
-1102 -1079
-1102 -1096
1079 1096 1102
-1103 1079
-1103 1096
-1079 -1096 1103
-1104 -1102
-1104 -1103
1102 1103 1104
-1105 1079
-1105 -1096
-1079 1096 1105
-1106 -1101
-1106 -1104
1101 1104 1106
-1107 1101
-1107 1104
-1101 -1104 1107
-1108 -1106
-1108 -1107
1106 1107 1108
-1109 1101
-1109 -1104
-1101 1104 1109
-1110 -1105
-1110 -1109
1105 1109 1110
-1111 -1100
-1111 1110
1100 -1110 1111
-1112 1100
-1112 -1110
-1100 1110 1112
-1113 -1111
-1113 -1112
1111 1112 1113
-1114 -1100
-1114 -1110
1100 1110 1114
-1115 -1081
-1115 -1108
1081 1108 1115
-1116 1081
-1116 1108
-1081 -1108 1116
-1117 -1115
-1117 -1116
1115 1116 1117
-1118 1081
-1118 -1108
-1081 1108 1118
-1119 -1113
-1119 -1118
1113 1118 1119
-1120 1113
-1120 1118
-1113 -1118 1120
-1121 -1119
-1121 -1120
1119 1120 1121
-1122 -1113
-1122 1118
1113 -1118 1122
-1123 1114
-1123 -1122
-1114 1122 1123
-1124 -1114
-1124 1122
1114 -1122 1124
-1125 -1123
-1125 -1124
1123 1124 1125
-1126 1114
-1126 1122
-1114 -1122 1126
-1127 -1083
-1127 -1117
1083 1117 1127
-1128 1083
-1128 1117
-1083 -1117 1128
-1129 -1127
-1129 -1128
1127 1128 1129
-1130 1083
-1130 -1117
-1083 1117 1130
-1131 -1126
-1131 -1129
1126 1129 1131
-1132 1126
-1132 1129
-1126 -1129 1132
-1133 -1131
-1133 -1132
1131 1132 1133
-1134 1126
-1134 -1129
-1126 1129 1134
-1135 -1130
-1135 -1134
1130 1134 1135
-1136 -1121
-1136 1135
1121 -1135 1136
-1137 1121
-1137 -1135
-1121 1135 1137
-1138 -1136
-1138 -1137
1136 1137 1138
-1139 -1121
-1139 -1135
1121 1135 1139
-1140 -1125
-1140 -1139
1125 1139 1140
-1141 1125
-1141 1139
-1125 -1139 1141
-1142 -1140
-1142 -1141
1140 1141 1142
-1143 -1125
-1143 1139
1125 -1139 1143
-1144 -1085
-1144 -1133
1085 1133 1144
-1145 1085
-1145 1133
-1085 -1133 1145
-1146 -1144
-1146 -1145
1144 1145 1146
-1147 1085
-1147 -1133
-1085 1133 1147
-1148 -1143
-1148 -1146
1143 1146 1148
-1149 1143
-1149 1146
-1143 -1146 1149
-1150 -1148
-1150 -1149
1148 1149 1150
-1151 1143
-1151 -1146
-1143 1146 1151
-1152 -1147
-1152 -1151
1147 1151 1152
-1153 -1138
-1153 1152
1138 -1152 1153
-1154 1138
-1154 -1152
-1138 1152 1154
-1155 -1153
-1155 -1154
1153 1154 1155
-1156 -1138
-1156 -1152
1138 1152 1156
-1157 -1142
-1157 -1156
1142 1156 1157
-1158 1142
-1158 1156
-1142 -1156 1158
-1159 -1157
-1159 -1158
1157 1158 1159
-1160 -1142
-1160 1156
1142 -1156 1160
-1161 -1087
-1161 -1150
1087 1150 1161
-1162 1087
-1162 1150
-1087 -1150 1162
-1163 -1161
-1163 -1162
1161 1162 1163
-1164 1087
-1164 -1150
-1087 1150 1164
-1165 -1160
-1165 -1163
1160 1163 1165
-1166 1160
-1166 1163
-1160 -1163 1166
-1167 -1165
-1167 -1166
1165 1166 1167
-1168 1160
-1168 -1163
-1160 1163 1168
-1169 -1164
-1169 -1168
1164 1168 1169
-1170 -1155
-1170 1169
1155 -1169 1170
-1171 1155
-1171 -1169
-1155 1169 1171
-1172 -1170
-1172 -1171
1170 1171 1172
-1173 -1155
-1173 -1169
1155 1169 1173
-1174 -1159
-1174 -1173
1159 1173 1174
-1175 1159
-1175 1173
-1159 -1173 1175
-1176 -1174
-1176 -1175
1174 1175 1176
-1177 -1159
-1177 1173
1159 -1173 1177
-1178 -1089
-1178 -1167
1089 1167 1178
-1179 1089
-1179 1167
-1089 -1167 1179
-1180 -1178
-1180 -1179
1178 1179 1180
-1181 1089
-1181 -1167
-1089 1167 1181
-1182 -1172
-1182 -1181
1172 1181 1182
-1183 1172
-1183 1181
-1172 -1181 1183
-1184 -1182
-1184 -1183
1182 1183 1184
-1185 -1172
-1185 1181
1172 -1181 1185
-1186 -1176
-1186 -1185
1176 1185 1186
-1187 1176
-1187 1185
-1176 -1185 1187
-1188 -1186
-1188 -1187
1186 1187 1188
-1189 -1176
-1189 1185
1176 -1185 1189
-1190 1177
-1190 -1189
-1177 1189 1190
-1191 -1177
-1191 1189
1177 -1189 1191
-1192 -1190
-1192 -1191
1190 1191 1192
-1193 1177
-1193 1189
-1177 -1189 1193
-1194 -1184
-1194 -1188
1184 1188 1194
-1195 1192
-1195 1194
-1192 -1194 1195
-1196 1192
-1196 -1195
-1192 1195 1196
-1197 -393
-1197 -395
393 395 1197
-1198 -1015
-1198 1048
1015 -1048 1198
-1199 -1041
-1199 1052
1041 -1052 1199
-1200 1196
-1200 -1198
-1196 1198 1200
-1201 -1197
-1201 -1199
1197 1199 1201
-1202 1200
-1202 1201
-1200 -1201 1202
-1202
